8276
14, 13, 47, 26, 28, 5, 16, 15, 39, 40, 36, 48, 38, 27, 49, 32, 1, 22, 31, 18, 19, 41, 8, 9, 10, 33, 43, 45, 3, 17, 21, 42, 7, 2, 30, 23, 20, 50, 29, 35, 46, 37, 11, 25, 12, 51, 52, 34, 24, 44, 6, 4
